Li56 La24 Zr16 O96
1.0
       13.2360696793         0.0000000000         0.0000000000
        0.0000000000        13.2360696793         0.0000000000
        0.0000000000         0.0000000000        12.7017059326
Li   La   Zr    O    F
54  24  16  94  2
Direct
     0.500000000         0.000000000         0.750000000
     0.500000000         0.000000000         0.250000000
     0.500000000         0.500000000         0.500000000
     0.000000000         0.000000000         0.500000000
     0.681210995         0.181210995         0.000000000
     0.318789005         0.181210995         0.500000000
     0.181210995         0.181210995         0.250000000
     0.818789005         0.181210995         0.750000000
     0.318789005         0.318789005         0.750000000
     0.681210995         0.318789005         0.250000000
     0.818789005         0.318789005         0.500000000
     0.681210995         0.818789005         0.500000000
     0.337534487         0.080515496         0.319143504
     0.662465513         0.080515496         0.819143474
     0.080515496         0.837534487         0.569143474
     0.419484496         0.337534487         0.569143474
     0.662465513         0.419484496         0.430856496
     0.837534487         0.919484496         0.430856496
     0.419484496         0.162465498         0.680856526
     0.580515504         0.162465498         0.180856496
     0.837534487         0.419484496         0.319143504
     0.162465498         0.419484496         0.819143474
     0.580515504         0.662465513         0.569143474
     0.919484496         0.162465498         0.569143474
     0.162465498         0.080515496         0.430856496
     0.337534487         0.580515504         0.430856496
     0.919484496         0.337534487         0.680856526
     0.000000000         0.500000000         0.250000000
     0.000000000         0.500000000         0.750000000
     0.000000000         0.000000000         0.000000000
     0.500000000         0.500000000         0.000000000
     0.181210995         0.681210995         0.500000000
     0.681210995         0.681210995         0.750000000
     0.318789005         0.681210995         0.250000000
     0.818789005         0.818789005         0.250000000
     0.181210995         0.818789005         0.750000000
     0.318789005         0.818789005         0.000000000
     0.181210995         0.318789005         0.000000000
     0.837534487         0.580515504         0.819143474
     0.162465498         0.580515504         0.319143504
     0.580515504         0.337534487         0.069143496
     0.919484496         0.837534487         0.069143496
     0.162465498         0.919484496         0.930856526
     0.337534487         0.419484496         0.930856526
     0.919484496         0.662465513         0.180856496
     0.080515496         0.662465513         0.680856526
     0.337534487         0.919484496         0.819143474
     0.662465513         0.919484496         0.319143504
     0.080515496         0.162465498         0.069143496
     0.419484496         0.662465513         0.069143496
     0.662465513         0.580515504         0.930856526
     0.837534487         0.080515496         0.930856526
     0.419484496         0.837534487         0.180856496
     0.580515504         0.837534487         0.680856526
     0.500000000         0.000000000         0.000000000
     0.500000000         0.000000000         0.500000000
     0.000000000         0.000000000         0.250000000
     0.500000000         0.500000000         0.250000000
     0.750000000         0.627370000         0.375000000
     0.750000000         0.127370000         0.375000000
     0.627370000         0.250000000         0.625000000
     0.872630000         0.750000000         0.625000000
     0.750000000         0.372630000         0.875000000
     0.750000000         0.872630000         0.875000000
     0.627370000         0.750000000         0.125000000
     0.872630000         0.250000000         0.125000000
     0.000000000         0.500000000         0.500000000
     0.000000000         0.500000000         0.000000000
     0.500000000         0.500000000         0.750000000
     0.000000000         0.000000000         0.750000000
     0.250000000         0.127370000         0.875000000
     0.250000000         0.627370000         0.875000000
     0.127370000         0.750000000         0.125000000
     0.372630000         0.250000000         0.125000000
     0.250000000         0.872630000         0.375000000
     0.250000000         0.372630000         0.375000000
     0.127370000         0.250000000         0.625000000
     0.372630000         0.750000000         0.625000000
     0.750000000         0.500000000         0.625000000
     0.750000000         0.000000000         0.625000000
     0.500000000         0.250000000         0.875000000
     0.500000000         0.250000000         0.375000000
     0.750000000         0.500000000         0.125000000
     0.250000000         0.500000000         0.625000000
     0.500000000         0.750000000         0.375000000
     0.000000000         0.250000000         0.375000000
     0.250000000         0.000000000         0.125000000
     0.250000000         0.500000000         0.125000000
     0.000000000         0.750000000         0.375000000
     0.000000000         0.750000000         0.875000000
     0.250000000         0.000000000         0.625000000
     0.750000000         0.000000000         0.125000000
     0.000000000         0.250000000         0.875000000
     0.500000000         0.750000000         0.875000000
     0.805482984         0.465384007         0.471296012
     0.694517016         0.965384007         0.471296012
     0.465384007         0.305483013         0.721296012
     0.534615993         0.305483013         0.221295998
     0.194517002         0.034616001         0.278703988
     0.805482984         0.034616001         0.778703988
     0.534615993         0.194517002         0.028704001
     0.805482984         0.534615993         0.971296012
     0.694517016         0.034616001         0.971296012
     0.965384007         0.194517002         0.721296012
     0.034616001         0.194517002         0.221295998
     0.694517016         0.465384007         0.278703988
     0.305483013         0.465384007         0.778703988
     0.034616001         0.305483013         0.028704001
     0.965384007         0.305483013         0.528703988
     0.102443002         0.054963000         0.590667009
     0.397556990         0.554962993         0.590667009
     0.554962993         0.102443002         0.340667009
     0.445037007         0.102443002         0.840667009
     0.897557020         0.445037007         0.159333006
     0.102443002         0.445037007         0.659332991
     0.445037007         0.397556990         0.409332991
     0.054963000         0.897557020         0.409332991
     0.602442980         0.445037007         0.590667009
     0.897557020         0.945037007         0.590667009
     0.054963000         0.397556990         0.340667009
     0.445037007         0.897557020         0.340667009
     0.897557020         0.554962993         0.659332991
     0.602442980         0.054963000         0.659332991
     0.945037007         0.102443002         0.409332991
     0.554962993         0.602442980         0.409332991
     0.776772976         0.650822997         0.178764001
     0.723227024         0.150822997         0.178764001
     0.650822997         0.276773006         0.428763986
     0.349177003         0.276773006         0.928763986
     0.723227024         0.349177003         0.071235999
     0.276773006         0.349177003         0.571236014
     0.849177003         0.723227024         0.821236014
     0.650822997         0.223226994         0.821236014
     0.776772976         0.349177003         0.678763986
     0.723227024         0.849177003         0.678763986
     0.150822997         0.223226994         0.428763986
     0.349177003         0.723227024         0.428763986
     0.723227024         0.650822997         0.571236014
     0.776772976         0.150822997         0.571236014
     0.849177003         0.276773006         0.321236014
     0.650822997         0.776772976         0.321236014
     0.305483013         0.965384007         0.971296012
     0.194517002         0.465384007         0.971296012
     0.965384007         0.805482984         0.221295998
     0.034616001         0.805482984         0.721296012
     0.694517016         0.534615993         0.778703988
     0.305483013         0.534615993         0.278703988
     0.034616001         0.694517016         0.528703988
     0.965384007         0.694517016         0.028704001
     0.305483013         0.034616001         0.471296012
     0.194517002         0.534615993         0.471296012
     0.465384007         0.694517016         0.221295998
     0.534615993         0.694517016         0.721296012
     0.194517002         0.965384007         0.778703988
     0.805482984         0.965384007         0.278703988
     0.534615993         0.805482984         0.528703988
     0.465384007         0.805482984         0.028704001
     0.602442980         0.554962993         0.090667002
     0.897557020         0.054963000         0.090667002
     0.054963000         0.602442980         0.840667009
     0.945037007         0.602442980         0.340667009
     0.397556990         0.945037007         0.659332991
     0.602442980         0.945037007         0.159333006
     0.945037007         0.897557020         0.909332991
     0.554962993         0.397556990         0.909332991
     0.102443002         0.945037007         0.090667002
     0.397556990         0.445037007         0.090667002
     0.554962993         0.897557020         0.840667009
     0.945037007         0.397556990         0.840667009
     0.397556990         0.054963000         0.159333006
     0.102443002         0.554962993         0.159333006
     0.445037007         0.602442980         0.909332991
     0.054963000         0.102443002         0.909332991
     0.276773006         0.150822997         0.678763986
     0.223226994         0.650822997         0.678763986
     0.150822997         0.776772976         0.928763986
     0.849177003         0.776772976         0.428763986
     0.223226994         0.849177003         0.571236014
     0.776772976         0.849177003         0.071235999
     0.349177003         0.223226994         0.321236014
     0.276773006         0.849177003         0.178764001
     0.223226994         0.349177003         0.178764001
     0.650822997         0.723227024         0.928763986
     0.849177003         0.223226994         0.928763986
     0.223226994         0.150822997         0.071235999
     0.276773006         0.650822997         0.071235999
     0.349177003         0.776772976         0.821236014
     0.150822997         0.276773006         0.821236014
     0.150822997         0.723227024         0.321236014
     0.465384007         0.194517002         0.528703988
